New structure
1.0
        5.9545001984         0.0000000000         0.0000000000
        0.0000000000         5.9372000694         0.0000000000
       -0.0692342883         0.0000000000        16.7096572892
   Fe    O
   24   32
Direct
     0.250000008         0.003400000         0.063660008
     0.749999978         0.996600009         0.936340015
     0.750000025         0.003400000         0.436340003
     0.250000001         0.996600009         0.563660019
     0.249999993         0.506100009         0.188669999
     0.749999994         0.493899991         0.811330038
     0.749999961         0.506100009         0.311330027
     0.250000006         0.493899991         0.688669996
     0.000000000         0.500000000         0.000000000
     0.000000000         0.500000000         0.500000011
     0.500000000         0.500000000         0.000000000
     0.499999993         0.500000000         0.500000011
     0.000000000         0.009600001         0.250000006
     0.000000000         0.990400050         0.750000046
     0.500000017         0.009600001         0.250000006
     0.500000010         0.990400050         0.750000046
     0.250000005         0.265899980         0.380100031
     0.750000022         0.734100000         0.619899992
     0.749999989         0.265899980         0.119899995
     0.249999998         0.734100000         0.880100042
     0.249999994         0.751999946         0.376590026
     0.749999992         0.248000034         0.623409996
     0.750000039         0.751999946         0.123409985
     0.250000007         0.248000034         0.876590038
     0.249999990         0.263700013         0.997699971
     0.749999996         0.736300027         0.002300000
     0.750000030         0.263700013         0.502300063
     0.249999997         0.736300027         0.497700017
     0.250000001         0.746100038         0.997100017
     0.750000005         0.253899982         0.002900000
     0.750000038         0.746100038         0.502900017
     0.250000008         0.253899982         0.497100006
     0.250000002         0.244699993         0.254200026
     0.750000024         0.755299946         0.745800026
     0.749999991         0.244699993         0.245799986
     0.249999995         0.755299946         0.754200008
     0.249999996         0.773799994         0.252500013
     0.750000011         0.226199986         0.747500009
     0.749999978         0.773799994         0.247499998
     0.250000009         0.226199986         0.752500025
     0.990900017         0.009500000         0.372300002
     0.009100000         0.990499960         0.627699964
     0.009100000         0.009500000         0.127700010
     0.990900051         0.990499960         0.872300070
     0.490900017         0.009500000         0.372300002
     0.509099929         0.990499960         0.627699964
     0.509099936         0.009500000         0.127700010
     0.490900011         0.990499960         0.872300070
     0.991900077         0.504599994         0.124600005
     0.008100000         0.495400006         0.875400003
     0.008100000         0.504599994         0.375400021
     0.991900030         0.495400006         0.624600031
     0.491900026         0.504599994         0.375400021
     0.508100041         0.495400006         0.624600031
     0.508100007         0.504599994         0.124599991
     0.491900019         0.495400006         0.875400003
