PREC=N
ENCUT=500
ISYM=0
EDIFF=1.000000e-05
LREAL=Auto
NPAR=4
KPAR=1
NELM=120
NELMIN=4
ISIF=2
ISMEAR=0
SIGMA=0.050000
IBRION=-1
NSW=0
LWAVE=F
LCHARG=F
KSPACING=0.200000
GGA=PS
KGAMMA=.FALSE.

