Si8
1.0
       10.9374561310         0.0000000000         0.0000000000
        0.0000000000        10.9374561310         0.0000000000
        0.0000000000         0.0000000000         5.4687280655
   Si
   32
Direct
     0.125000000         0.375000000         0.250000000
     0.125000000         0.875000000         0.250000000
     0.625000000         0.375000000         0.250000000
     0.625000000         0.875000000         0.250000000
     0.000000000         0.000000000         0.500000000
     0.000000000         0.500000000         0.500000000
     0.500000000         0.000000000         0.500000000
     0.500000000         0.500000000         0.500000000
     0.125000000         0.125000000         0.750000000
     0.125000000         0.625000000         0.750000000
     0.625000000         0.125000000         0.750000000
     0.625000000         0.625000000         0.750000000
     0.000000000         0.250000000         0.000000000
     0.000000000         0.750000000         0.000000000
     0.500000000         0.250000000         0.000000000
     0.500000000         0.750000000         0.000000000
     0.375000000         0.375000000         0.750000000
     0.375000000         0.875000000         0.750000000
     0.875000000         0.375000000         0.750000000
     0.875000000         0.875000000         0.750000000
     0.250000000         0.000000000         0.000000000
     0.250000000         0.500000000         0.000000000
     0.750000000         0.000000000         0.000000000
     0.750000000         0.500000000         0.000000000
     0.375000000         0.125000000         0.250000000
     0.375000000         0.625000000         0.250000000
     0.875000000         0.125000000         0.250000000
     0.875000000         0.625000000         0.250000000
     0.250000000         0.250000000         0.500000000
     0.250000000         0.750000000         0.500000000
     0.750000000         0.250000000         0.500000000
     0.750000000         0.750000000         0.500000000
