New structure
8.3939
        0         0.5         0.5
        0.5         0         0.5
        0.5         0.5       0
   Fe    O
   6   8
Cart
0.125 0.125 0.125
-0.125 -0.125 -0.125
0 0 0.5
0.25 0 0.75
0 0.25 0.75
0.25 0.75 0
0.2549 0.2549 0.2549
-0.2549 -0.2549 -0.2549
0.2549 -0.0049 -0.0049
-0.2549 0.0049 0.0049
-0.0049 0.2549 -0.0049
0.0049 -0.2549 0.0049
-0.00490 -0.0049 0.2549
0.0049 0.0049 -0.2549
