cif2pos.py
1.0
     9.85000000     0.00000000     0.00000000
     0.00000000     9.85000000     0.00000000
     0.00000000     0.00000000     9.85000000
  Li  P  S  Cl
  24  4  20  4
Direct
     0.25000000     0.25000000     0.02311300
     0.25000000     0.25000000     0.47688700
     0.25000000     0.47688700     0.25000000
     0.25000000     0.02311300     0.25000000
     0.02311300     0.25000000     0.25000000
     0.47688700     0.25000000     0.25000000
     0.25000000     0.75000000     0.52311300
     0.25000000     0.75000000     0.97688700
     0.25000000     0.97688700     0.75000000
     0.25000000     0.52311300     0.75000000
     0.02311300     0.75000000     0.75000000
     0.47688700     0.75000000     0.75000000
     0.75000000     0.25000000     0.52311300
     0.75000000     0.25000000     0.97688700
     0.75000000     0.47688700     0.75000000
     0.75000000     0.02311300     0.75000000
     0.52311300     0.25000000     0.75000000
     0.97688700     0.25000000     0.75000000
     0.75000000     0.75000000     0.02311300
     0.75000000     0.75000000     0.47688700
     0.75000000     0.97688700     0.25000000
     0.75000000     0.52311300     0.25000000
     0.52311300     0.75000000     0.25000000
     0.97688700     0.75000000     0.25000000
     0.50000000     0.00000000     0.00000000
     0.50000000     0.50000000     0.50000000
     0.00000000     0.00000000     0.50000000
     0.00000000     0.50000000     0.00000000
     0.11552233     0.38447767     0.88447767
     0.88447767     0.38447767     0.11552233
     0.38447767     0.11552233     0.88447767
     0.61552233     0.11552233     0.11552233
     0.11552233     0.88447767     0.38447767
     0.88447767     0.88447767     0.61552233
     0.38447767     0.61552233     0.38447767
     0.61552233     0.61552233     0.61552233
     0.61552233     0.38447767     0.38447767
     0.38447767     0.38447767     0.61552233
     0.88447767     0.11552233     0.38447767
     0.11552233     0.11552233     0.61552233
     0.61552233     0.88447767     0.88447767
     0.38447767     0.88447767     0.11552233
     0.88447767     0.61552233     0.88447767
     0.11552233     0.61552233     0.11552233
     0.75000000     0.25000000     0.75000000
     0.75000000     0.75000000     0.25000000
     0.00000000     0.00000000     0.00000000
     0.00000000     0.50000000     0.50000000
     0.50000000     0.00000000     0.50000000
     0.50000000     0.50000000     0.00000000
     0.25000000     0.25000000     0.25000000
     0.25000000     0.75000000     0.75000000
